25808 25307 24237 24143 23253 22914 22752 22471 22246 21815 21863 21228 20449 20417 19783 19641 19475 19308 18956 18737 18486 18225 17787 17606 17276 16935 16705 16370 16058 15836 15737 15502 15235 14960 14867 14665 14438 14288 14178 14072 13950 13835 13745 13570 13531 13274 13264 13169 13109 12922 12863 12851 12666 12656 12527 12424 12300 12300 12189 12136 12069 11995 11926 11827 11805 11813 11739 11698 11695 11661 11636 11582 11534 11468 11523 11448 11395 11303 11367 11329 11331 11169 11239 11084 11132 11099 11088 10964 11051 10915 10878 10813 10808 10766 10744 10716 10673 10612 10647 10626 10593 10510 10478 10457 10511 10516 10485 10380 10429 10416 10387 10281 10352 10405 10210 10210 10341 10197 10183 10251 10251 10122 10268 10222 10114 10107 10070 10131 10099 10069 10108 10044 10039 10017 10035 10013 9999 9961 9994 9953 10004 9955 9989 9905 9879 9961 9893 9825 9966 9949 9930 9930 9897 9835 9884 9866 9872 9844 9865 9867 9846 9862 9829 9814 9818 9732 9825 9734 9734 9734 9637 9734 9709 9735 9666 9701 9704 9706 9725 9669 9710 9708 9702 9700 9687 9656 9710 9710 9686 9627 9663 9707 9675 9527 9525 9552 9510 9482 9497 9547 9547 9499 9555 9513 9463 9444 9528 9545 9511 9453 9415 9507 9438 9473 9358 9358 9381 9366 9357 9348 9466 9362 9361 9282 9235 9458 9404 9266 9395 9375 9271 9235 9193 9192 9153 9093 9148 9083 9022 9022 9020 8992 8850 8801 8786 8699 8604 8682 8603 8546 8635 8566 8536 8490 8589 8545 8477 8464 8433 8497 8433 8316 8244 8240 8221 8183 8160 8133 8100 8080 8042 7994 7959 7920 7893 7854 7812 7777 7769 7753 7740 7715 7705 7689 7653 7609 7601 7589 7574 7541 7531 7516 7496 7489 7474 7455 7445 7421 7394 7388 7370 7356 7342 7319 7306 7278 7253 7243 7203 7180 7170 7149 7125 7114 7083 7049 7039 7030 7021 7012 6998 6983 6972 6952 6931 6919 6910 6903 6894 6890 6870 6862 6847 6843 6830 6822 6807 6790 6777 6773 6768 6763 6754 6745 6738 6725 6700 6700 6691 6672 6659 6650 6639 6631 6598 6576 6573 6567 6565 6546 6545 6523 6522 6511 6504 6502 6495 6482 6482 6480 6459 6418 6369 6361 6334 6331 6304 6271 6252 6244 6230 6224 6214 6209 6201 6190 6183 6176 6171 6165 6162 6156 6148 6148 6143 6143 6140 6136 6134 6128 6113 6105 6099 6085 6070 6065 6061 6053 6050 6043 6031 6028 6014 6009 6005 6003 5998 5991 5983 5983 5978 5977 5967 5966 5960 5957 5955 5950 5947 5944 5943 5940 5935 5929 5926 5920 5916 5912 5910 5908 5906 5904 5901 5899 5891 5886 5878 5870 5863 5856 5848 5838 5838 5836 5834 5832 5828 5828 5825 5823 5822 5814 5814 5813 5808 5807 5807 5802 5788 5787 5786 5786 5784 5778 5774 5771 5764 5759 5749 5745 5744 5740 5739 5734 5733 5731 5727 5725 5724 5722 5718 5714 5708 5708 5708 5702 5700 5697 5695 5695 5693 5692 5691 5691 5689 5686 5681 5676 5674 5672 5671 5666 5655 5650 5646 5646 5642 5642 5638 5637 5632 5631 5628 5624 5623 5618 5591 5589 5585 5581 5578 5578 5578 5578 5577 5574 5570 5568 5555 5555 5547 5543 5538 5534 5525 5521 5521 5513 5513 5505 5505 5504 5504 5504 5494 5494 5494 5493 5490 5482 5466 5464 5462 5459 5456 5455 5455 5453 5453 5452 5452 5449 5449 5449 5449 5448 5447 5446 5445 5445 5444 5443 5443 5441 5441 5436 5436 5436 5436 5433 5433 5433 5433 5426 5424 5424 5419 5417 5416 5411 5409 5406 5405 5404 5391 5387 5383 5381 5381 5381 5381 5377 5377 5377 5377 5377 5375 5367 5365 5364 5364 5362 5361 5361 5360 5359 5358 5358 5357 5356 5355 5354 5354 5353 5352 5351 5349 5348 5347 5346 5342 5341 5341 5332 5332 5332 5327 5326 5326 5326 5315 5314 5313 5313 5313 5313 5307 5307 5307 5307 5306 5306 5306 5305 5305 5305 5304 5304 5304 5304 5295 5295 5295 5295 5295 5294 5293 5293 5293 5292 5288 5288 5288 5286 5269 5269 5266 5261 5258 5256 5253 5250 5249 5241 5241 5241 5241 5241 5241 5237 5237 5234 5234 5234 5234 5228 5228 5228 5228 5228 5228 5228 5225 5225 5225 5225 5225 5225 5223 5196 5194 5194 5188 5188 5186 5186 5184 5173 5173 5169 5169 5169 5167 5167 5167 5167 5167 5167 5167 5167 5166 5165 5165 5165 5165 5160 5160 5160 5151 5147 5144 5140 5138 5132 5122 5121 5120 5120 5119 5117 5117 5117 5117 5117 5116 5115 5115 5108 5098 5097 5088 5087 5087 5070 5055 5055 5035 5017 5016 5001 5001 5001 5001 4995 4995 4994 4985 4979 4979 4979 4979 4979 4979 4979 4977 4977 4977 4977 4977 4972 4972 4972 4972 4972 4972 4972 4972 4972 4972 4972 4972 4971 4971 4971 4969 4969 4969 4969 4968 4952 4939 4891 4883 4883 4880 4880 4856 4856 4848 4843 4811 4803 4782 4772 4772 4772 4771 4771 4769 4764 4763 4763 4763 4763 4763 4763 4758 4758 4753 4753 4753 4753 4749 4749 4749 4749 4749 4748 4748 4748 4738 4738 4734 4734 4734 4731 4731 4729 4729 4729 4729 4729 4729 4729 4729 4729 4729 4729 4720 4720 4720 4720 4720 4720 4720 4720 4720 4720 4717 4715 4715 4715 4715 4715 4713 4713 4711 4711 4711 4709 4709 4709 4709 4709 4709 4709 4709 4709 4709 4709 4709 4709 4709 4709 4709 4709 4709 4708 4708 4708 4708 4708 4705 4705 4705 4705 4705 4705 4705 4705 4705 4705 4705 4705 4705 4704 4704 4704 4704 4704 4704 4703 4703 4703 4703 4703 4703 4703 4703 4701 4701 4701 4701 4701 4701 4698 4698 4698 4697 4697 4697 4693 4693 4693 4692 4692 4692 4692 4691 4691 4691 4691 4691 4691 4689 4686 4686 4684 4684 4684 4684 4684 4684 4684 4675 4675 4675 4674 4674 4671 4671 4671 4671 4671 4671 4671 4671 4671 4671 4671 4671 4671 4671 4671 4671 4671 4671 4671 4669 4669 4669 4669 4669 4669 4669 4669 4669 4669 4669 4669 4669 4669 4669 4669 4669 4669 4669 4669 4669 4669 4669 4666 4666 4666 4666 4666 4666 4666 4666 4666 4666 4666 4666 4666 4666 4666 4666 4666 4666 4666 4666 4666 4666 4666 4666 4665 4665 4665 4665 4665 4665 4665 4665 4665 4665 4665 4665 4665 4664 4664 4664 4664 4664 4664 4664 4664 4664 4664 4664 4664 4664 4664 4664 4664 4664 4664 4664 4664 4664 4664 4664 4664 4664 4664 4664 4664 4664 4664 4664 4664 4664 4664 4664 4664 4664 4664 4664 4664 4664 4663 4663 4662 4662 4662 4662 4662 4662 4662 4662 4662 4661 4661 4661 4661 4661 4661 4661 4661 4661 4661 4661 4661 4661 4661 4661 4661 4661 4661 4661 4661 4661 4661 4661 4661 4661 4661 4661 4661 4661 4660 4660 4660 4660 4660 4660 4660 4660 4660 4660 4660 4660 4660 4660 4660 4660 4660 4658 4658 4658 4658 4658 4658 4658 4658 4658 4658 4658 4658 4658 4658 4658 4656 4656 4656 4655 4655 4655 4655 4655 4655 4655 4655 4655 4655 4655 4655 4655 4655 4655 4655 4655 4655 4655 4655 4655 4655 4655 4655 4655 4655 4655 4655 4655 4655 4655 4655 4655 4655 4655 4655 4655 4655 4653 4653 4653 4653 4653 4653 4653 4653 4653 4653 4653 4653 4653 4653 4653 4653 4653 4653 4653 4653 4653 4653 4653 4653 4653 4653 4653 4653 4653 4653 4653 4653 4653 4653 4653 4653 4653 4653 4653 4653 4653 4653 4653 4653 4653 4653 4653 4653 4653 4653 4653 4653 4653 4653 4653 4653 4653 4644 4644 4644 4644 4644 4644 4644 4644 4644 4644 4644 4644 4644 4644 4644 4644 4644 4644 4644 4644 4644 4644 4644 4644 4644 4644 4644 4644 4644 4641 4641 4641 4641 4641 4641 4641 4641 4641 4641 4641 4641 4641 4641 4641 4641 4641 4641 4641 4641 4641 4641 4641 4641 4641 4641 4641 4641 4641 4641 4641 4641 4641 4641 4641 4641 4641 4641 4641 4641 4641 4641 4641 4641 4641 4641 4641 4641 4641 4641 4640 4640 4640 4640 4640 4640 4640 4640 4640 4640 4640 4640 4640 4640 4640 4640 4640 4640 4640 4640 4640 4640 4640 4640 4640 4639 4639 4639 4639 4639 4639 4639 4639 4639 4639 4639 4639 4639 4639 4639 4639 4639 4639 4639 4639 4639 4639 4639 4639 4639 4639 4639 4639 4639 4639 4639 4639 4639 4639 4639 4639 4639 4639 4639 4639 4639 4639 4639 4639 4639 4639 4639 4639 4639 4639 4639 4639 4639 4639 4639 4639 4639 4639 4639 4639 4639 4639 4639 4639 4639 4639 4639 4639 4639 4639 4639 4639 4637 4637 4637 4637 4637 4637 4637 4637 4637 4637 4637 4637 4637 4637 4637 4637 4637 4637 4637 4637 4637 4637 4637 4637 4637 4637 4637 4637 4637 4637 4637 4637 4637 4637 4637 4637 4637 4637 4637 4637 4637 4637 4637 4637 4637 4637 4637 4637 4637 4637 4637 4637 4629 4629 4629 4629 4629 4629 4629 4629 4629 4622 4622 4622 4622 4622 4622 4622 4622 4622 4622 4622 4620 4620 4620 4620 4620 4620 4620 4620 4620 4620 4620 4620 4620 4620 4620 4620 4620 4620 4620 4620 4620 4620 4620 4618 4618 4618 4618 4618 4618 4618 4618 4618 4618 4618 4618 4618 4618 4618 4618 4618 4618 4618 4618 4618 4618 4618 4618 4618 4618 4618 4618 4618 4618 4617 4617 4617 4617 4617 4617 4617 4617 4617 4617 4617 4617 4617 4617 4617 4617 4617 4617 4617 4617 4617 4617 4617 4617 4617 4617 4617 4617 4617 4617 4617 4617 4617 4617 4617 4617 4617 4617 4617 4617 4617 4617 4617 4617 4617 4617 4617 4617 4617 4617 4617 4616 4616 4616 4616 4616 4616 4616 4616 4616 4616 4616 4616 4616 4616 4616 4616 4616 4616 4616 4616 4616 4616 4616 4616 4616 4616 4616 4616 4616 4616 4616 4616 4616 4616 4616 4616 4616 4616 4616 4616 4616 4616 4616 4616 4616 4616 4616 4616 4616 4616 4616 4616 4616 4616 4616 4616 4616 4616 4616 4616 4616 4616 4616 4616 4616 4616 4616 4616 4616 4616 4616 4616 4616 4616 4616 4616 4616 4616 4616 4616 4616 4616 4616 4616 4616 4616 4616 4616 4616 4616 4616 4616 4616 4616 4616 4616 4616 4616 4616 4616 4616 4616 4616 4616 4616 4616 4616 4616 4616 4616 4616 4616 4616 4616 4616 4616 4616 4616 4616 4616 4616 4616 4616 4616 4616 4616 4616 4616 4616 4616 4616 4616 4616 4616 4616 4616 4616 4616 4616 4616 4616 4616 4616 4616 4616 4616 4616 4616 4616 4616 4616 4616 4616 4616 4616 4616 4616 4616 4616 4616 4616 4616 4616 4616 4616 4616 4616 4616 4616 4616 4616 4616 4616 4616 4616 4616 4616 4616 4616 4616 4616 4616 4616 4616 4616 4616 4616 4616 4616 4616 4616 4616 4616 4616 4616 4616 4616 4616 4616 4616 4616 4616 4616 4616 4616 4616 4616 4616 4616 4616 4616 4616 4616 4616 4616 4616 4616 4616 4616 4616 4616 4616 4616 4616 4616 4616 4616 4616 4616 4616 4616 4616 4616 4616 4616 4616 4616 4616 4616 4616 4616 4616 4616 4616 4616 4616 4616 4616 4616 4616 4616 4616 4616 4616 4612 4612 4612 4612 4612 4612 4612 4612 4612 4612 4612 4612 4612 4612 4612 4612 4612 4612 4612 4612 4612 4612 4612 4612 4612 4612 4612 4612 4612 4612 4612 4612 4612 4612 4612 4612 4612 4612 4612 4612 4612 4612 4612 4612 4612 4612 4612 4612 4612 4612 4612 4612 4612 4612 4612 4612 4612 4612 4612 4612 4612 4612 4612 4612 4612 4612 4612 4612 4612 4612 4612 4612 4612 4612 4612 4612 4612 4612 4612 4612 4612 4612 4612 4612 4612 4612 4612 4612 4612 4612 4612 4612 4612 4612 4612 4612 4612 4612 4612 4612 4612 4612 4612 4612 4612 4612 4612 4612 4612 4612 4612 4612 4612 4612 4612 4612 4612 4612 4612 4612 4612 4612 4612 4612 4612 4612 4612 4612 4612 4612 4612 4612 4612 4612 4612 4612 4612 4612 4612 4612 4612 4612 4612 4612 4612 4612 4612 4612 4612 4612 4612 4612 4612 4612 4612 4612 4612 4612 4612 4612 4612 4612 4612 4612 4612 4612 4612 4612 4612 4612 4612 4612 4612 4612 4612 4612 4612 4612 4612 4612 4612 4612 4612 4612 4612 4612 4612 4612 4612 4612 4612 4612 4612 4612 4612 4612 4612 4612 4612 4612 4612 4612 4612 4612 4612 4612 4612 4612 4612 4612 4612 4612 4612 4612 4612 4612 4612 4612 4612 4612 4612 4612 4612 4612 4612 4612 4612 4612 4612 4612 4612 4612 4612 4612 4612 4612 4612 4612 4612 4612 4612 4612 4612 4612 4612 4612 4612 4612 4612 4612 4612 4612 4612 4612 4612 4612 4612 4612 4612 4612 4612 4612 4612 4612 4612 4612 4612 4612 4612 4612 4612 4612 4612 4612 4612 4612 4612 4612 4612 4612 4612 4612 4612 4612 4612 4612 4612 4612 4612 4612 4612 4612 4612 4612 4612 4612 4612 4612 4612 4612 4612 4612 4612 4612 4612 4612 4612 4612 4612 4612 4612 4612 4612 4612 4612 4612 4612 4612 4612 4612 4612 4612 4612 4612 4612 4612 4612 4612 4612 4612 4612 4612 4612 4612 4612 4612 4612 4612 4612 4612 4612 4612 4612 4612 4612 4612 4612 4612 4612 4612 4612 4612 4612 4612 4612 4612 4612 4612 4612 4612 4612 4612 4612 4612 4612 4612 4612 4612 4612 4612 4612 4612 4612 4612 4612 4612 4612 4612 4612 4612 4612 4612 4612 4612 4612 4612 4612 4612 4612 4612 4612 4612 4612 4612 4612 4612 4612 4612 4612 4612 4612 4612 4612 4612 4612 4612 4612 4612 4612 4612 4612 4612 4612 4612 4612 4612 4612 4612 4612 4612 4612 4612 4612 4612 4612 4612 4612 4612 4612 4612 4612 4612 4612 4612 4612 4612 4612 4612 4612 4612 4612 4612 4612 4612 4612 4612 4612 4612 4612 4612 4612 4612 4612 4612 4612 4612 4612 4612 4612 4612 4612 4612 4612 4612 4612 4612 4612 4612 4612 4612 4612 4612 4612 4612 4612 4612 4612 4612 4612 4612 4612 4612 4612 4612 4612 4612 4612 4612 4612 4612 4612 4612 4612 4612 4612 4612 4612 4612 4612 4612 4612 
16972 16082 15428 14983 14132 13828 13629 13176 12722 12260 12096 11600 11095 10942 10396 10073 9729 9449 9181 8869 8647 8385 8052 7908 7403 7085 6855 6561 6295 6116 5889 5672 5452 5154 5052 4874 4680 4493 4417 4272 4150 4100 3940 3779 3707 3564 3497 3438 3320 3221 3135 3050 2954 2864 2749 2681 2573 2530 2431 2427 2353 2279 2190 2113 2080 2036 2020 1993 1974 1927 1893 1855 1819 1773 1719 1685 1643 1622 1589 1563 1517 1448 1425 1403 1357 1336 1318 1286 1258 1231 1193 1172 1138 1101 1078 1042 1004 964 930 903 895 872 861 844 820 809 793 769 768 748 722 706 687 679 662 639 633 627 625 616 615 607 600 582 573 563 544 539 530 527 517 513 498 484 468 452 440 435 425 417 408 393 392 378 376 371 365 358 353 336 336 336 320 313 307 301 297 293 286 279 275 270 263 259 255 252 247 242 242 242 242 236 232 228 228 221 217 216 211 208 206 204 203 200 200 199 197 196 191 191 185 181 175 175 172 169 152 152 146 143 143 143 140 140 140 140 139 137 137 137 137 136 135 134 132 132 131 131 131 131 130 129 128 128 128 127 127 112 92 92 92 92 92 92 92 92 91 91 76 76 76 75 75 75 75 75 75 74 74 74 71 70 68 68 54 54 54 54 54 3 0 0 0 0 0 0 0 0 0 0 0 0 0 0 0 0 0 0 0 0 0 0 0 0 0 0 0 0 0 0 0 0 0 0 0 0 0 0 0 0 0 0 0 0 0 0 0 0 0 0 0 0 0 0 0 0 0 0 0 0 0 0 0 0 0 0 0 0 0 0 0 0 0 0 0 0 0 0 0 0 0 0 0 0 0 0 0 0 0 0 0 0 0 0 0 0 0 0 0 0 0 0 0 0 0 0 0 0 0 0 0 0 0 0 0 0 0 0 0 0 0 0 0 0 0 0 0 0 0 0 0 0 0 0 0 0 0 0 0 0 0 0 0 0 0 0 0 0 0 0 0 0 0 0 0 0 0 0 0 0 0 0 0 0 0 0 0 0 0 0 0 0 0 0 0 0 0 0 0 0 0 0 0 0 0 0 0 0 0 0 0 0 0 0 0 0 0 0 0 0 0 0 0 0 0 0 0 0 0 0 0 0 0 0 0 0 0 0 0 0 0 0 0 0 0 0 0 0 0 0 0 0 0 0 0 0 0 0 0 0 0 0 0 0 0 0 0 0 0 0 0 0 0 0 0 0 0 0 0 0 0 0 0 0 0 0 0 0 0 0 0 0 0 0 0 0 0 0 0 0 0 0 0 0 0 0 0 0 0 0 0 0 0 0 0 0 0 0 0 0 0 0 0 0 0 0 0 0 0 0 0 0 0 0 0 0 0 0 0 0 0 0 0 0 0 0 0 0 0 0 0 0 0 0 0 0 0 0 0 0 0 0 0 0 0 0 0 0 0 0 0 0 0 0 0 0 0 0 0 0 0 0 0 0 0 0 0 0 0 0 0 0 0 0 0 0 0 0 0 0 0 0 0 0 0 0 0 0 0 0 0 0 0 0 0 0 0 0 0 0 0 0 0 0 0 0 0 0 0 0 0 0 0 0 0 0 0 0 0 0 0 0 0 0 0 0 0 0 0 0 0 0 0 0 0 0 0 0 0 0 0 0 0 0 0 0 0 0 0 0 0 0 0 0 0 0 0 0 0 0 0 0 0 0 0 0 0 0 0 0 0 0 0 0 0 0 0 0 0 0 0 0 0 0 0 0 0 0 0 0 0 0 0 0 0 0 0 0 0 0 0 0 0 0 0 0 0 0 0 0 0 0 0 0 0 0 0 0 0 0 0 0 0 0 0 0 0 0 0 0 0 0 0 0 0 0 0 0 0 0 0 0 0 0 0 0 0 0 0 0 0 0 0 0 0 0 0 0 0 0 0 0 0 0 0 0 0 0 0 0 0 0 0 0 0 0 0 0 0 0 0 0 0 0 0 0 0 0 0 0 0 0 0 0 0 0 0 0 0 0 0 0 0 0 0 0 0 0 0 0 0 0 0 0 0 0 0 0 0 0 0 0 0 0 0 0 0 0 0 0 0 0 0 0 0 0 0 0 0 0 0 0 0 0 0 0 0 0 0 0 0 0 0 0 0 0 0 0 0 0 0 0 0 0 0 0 0 0 0 0 0 0 0 0 0 0 0 0 0 0 0 0 0 0 0 0 0 0 0 0 0 0 0 0 0 0 0 0 0 0 0 0 0 0 0 0 0 0 0 0 0 0 0 0 0 0 0 0 0 0 0 0 0 0 0 0 0 0 0 0 0 0 0 0 0 0 0 0 0 0 0 0 0 0 0 0 0 0 0 0 0 0 0 0 0 0 0 0 0 0 0 0 0 0 0 0 0 0 0 0 0 0 0 0 0 0 0 0 0 0 0 0 0 0 0 0 0 0 0 0 0 0 0 0 0 0 0 0 0 0 0 0 0 0 0 0 0 0 0 0 0 0 0 0 0 0 0 0 0 0 0 0 0 0 0 0 0 0 0 0 0 0 0 0 0 0 0 0 0 0 0 0 0 0 0 0 0 0 0 0 0 0 0 0 0 0 0 0 0 0 0 0 0 0 0 0 0 0 0 0 0 0 0 0 0 0 0 0 0 0 0 0 0 0 0 0 0 0 0 0 0 0 0 0 0 0 0 0 0 0 0 0 0 0 0 0 0 0 0 0 0 0 0 0 0 0 0 0 0 0 0 0 0 0 0 0 0 0 0 0 0 0 0 0 0 0 0 0 0 0 0 0 0 0 0 0 0 0 0 0 0 0 0 0 0 0 0 0 0 0 0 0 0 0 0 0 0 0 0 0 0 0 0 0 0 0 0 0 0 0 0 0 0 0 0 0 0 0 0 0 0 0 0 0 0 0 0 0 0 0 0 0 0 0 0 0 0 0 0 0 0 0 0 0 0 0 0 0 0 0 0 0 0 0 0 0 0 0 0 0 0 0 0 0 0 0 0 0 0 0 0 0 0 0 0 0 0 0 0 0 0 0 0 0 0 0 0 0 0 0 0 0 0 0 0 0 0 0 0 0 0 0 0 0 0 0 0 0 0 0 0 0 0 0 0 0 0 0 0 0 0 0 0 0 0 0 0 0 0 0 0 0 0 0 0 0 0 0 0 0 0 0 0 0 0 0 0 0 0 0 0 0 0 0 0 0 0 0 0 0 0 0 0 0 0 0 0 0 0 0 0 0 0 0 0 0 0 0 0 0 0 0 0 0 0 0 0 0 0 0 0 0 0 0 0 0 0 0 0 0 0 0 0 0 0 0 0 0 0 0 0 0 0 0 0 0 0 0 0 0 0 0 0 0 0 0 0 0 0 0 0 0 0 0 0 0 0 0 0 0 0 0 0 0 0 0 0 0 0 0 0 0 0 0 0 0 0 0 0 0 0 0 0 0 0 0 0 0 0 0 0 0 0 0 0 0 0 0 0 0 0 0 0 0 0 0 0 0 0 0 0 0 0 0 0 0 0 0 0 0 0 0 0 0 0 0 0 0 0 0 0 0 0 0 0 0 0 0 0 0 0 0 0 0 0 0 0 0 0 0 0 0 0 0 0 0 0 0 0 0 0 0 0 0 0 0 0 0 0 0 0 0 0 0 0 0 0 0 0 0 0 0 0 0 0 0 0 0 0 0 0 0 0 0 0 0 0 0 0 0 0 0 0 0 0 0 0 0 0 0 0 0 0 0 0 0 0 0 0 0 0 0 0 0 0 0 0 0 0 0 0 0 0 0 0 0 0 0 0 0 0 0 0 0 0 0 0 0 0 0 0 0 0 0 0 0 0 0 0 0 0 0 0 0 0 0 0 0 0 0 0 0 0 0 0 0 0 0 0 0 0 0 0 0 0 0 0 0 0 0 0 0 0 0 0 0 0 0 0 0 0 0 0 0 0 0 0 0 0 0 0 0 0 0 0 0 0 0 0 0 0 0 0 0 0 0 0 0 0 0 0 0 0 0 0 0 0 0 0 0 0 0 0 0 0 0 0 0 0 0 0 0 0 0 0 0 0 0 0 0 0 0 0 0 0 0 0 0 0 0 0 0 0 0 0 0 0 0 0 0 0 0 0 0 0 0 0 0 0 0 0 0 0 0 0 0 0 0 0 0 0 0 0 0 0 0 0 0 0 0 0 0 0 0 0 0 0 0 0 0 0 0 0 0 0 0 0 0 0 0 0 0 0 0 0 0 0 0 0 0 0 0 0 0 0 0 0 0 0 0 0 0 0 0 0 0 0 0 0 0 0 0 0 0 0 0 0 0 0 0 0 0 0 0 0 0 0 0 0 0 0 0 0 0 0 0 0 0 0 0 0 0 0 0 0 0 0 0 0 0 0 0 0 0 0 0 0 0 0 0 0 0 0 0 0 0 0 0 0 0 0 0 0 0 0 0 0 0 0 0 0 0 0 0 0 0 0 0 0 0 0 0 0 0 0 0 0 0 0 0 0 0 0 0 0 0 0 0 0 0 0 0 0 0 0 0 0 0 0 0 0 0 0 0 0 0 0 0 0 0 0 0 0 0 0 0 0 0 0 0 0 0 0 0 0 0 0 0 0 0 0 0 0 0 0 0 0 0 0 0 0 0 0 0 0 0 0 0 0 0 0 0 0 0 0 0 0 0 0 0 0 0 0 0 0 0 0 0 0 0 0 0 0 0 0 0 0 0 0 0 0 0 0 0 0 0 0 0 0 0 0 0 0 0 0 0 0 0 0 0 0 0 0 0 0 0 0 0 0 0 0 0 0 0 0 0 0 0 0 0 0 0 0 0 0 0 0 0 0 0 0 0 0 0 0 0 0 0 0 0 0 0 0 0 0 0 0 0 0 0 0 0 0 0 0 0 0 0 0 0 0 0 0 0 0 0 0 0 0 0 0 0 0 0 0 0 0 0 0 0 0 0 0 0 0 0 0 0 0 0 0 0 0 0 0 0 0 0 0 0 0 0 0 0 0 0 0 0 0 0 0 0 0 0 0 0 0 0 0 0 0 0 0 0 0 0 0 0 0 0 0 0 0 0 0 0 0 0 0 0 0 0 0 0 0 0 0 0 0 0 0 0 0 0 0 0 0 0 0 0 0 0 0 0 0 0 0 0 0 0 0 0 0 0 0 0 0 0 0 0 0 0 0 0 0 0 0 0 0 0 0 0 0 0 0 0 0 0 0 0 0 0 0 0 0 0 0 0 0 0 0 0 0 0 0 0 0 0 0 0 0 0 0 0 0 0 0 0 0 0 0 0 0 0 0 0 0 0 0 0 0 0 0 0 0 0 0 0 0 0 0 0 0 0 0 0 0 0 0 0 0 0 0 0 0 0 0 0 0 0 0 0 0 0 0 0 0 0 0 0 0 0 0 0 0 0 0 0 0 0 0 0 0 0 0 0 0 0 0 0 0 0 0 0 0 0 